
(set-logic ALL)
(declare-fun num_couriers () Int)
(assert (= num_couriers 2))
(declare-fun num_items () Int)
(assert (= num_items 6))
(declare-fun lower_bound () Int)
(assert (= lower_bound 8))
(declare-fun upper_bound () Int)
(assert (= upper_bound 40))

(declare-fun couriers_capa () (Array Int Int))
(assert (= (select couriers_capa 1) 15))
(declare-fun items_size () (Array Int Int))
(assert (= (select items_size 1) 3))
(assert (= (select items_size 2) 2))
(assert (= (select items_size 3) 6))
(assert (= (select items_size 4) 5))
(assert (= (select items_size 5) 4))
(declare-fun distances_1 () (Array Int Int))
(assert (= (select distances_1 1) 0))
(assert (= (select distances_1 2) 3))
(assert (= (select distances_1 3) 4))
(assert (= (select distances_1 4) 5))
(assert (= (select distances_1 5) 6))
(assert (= (select distances_1 6) 6))
(assert (= (select distances_1 7) 2))
(declare-fun distances_2 () (Array Int Int))
(assert (= (select distances_2 1) 3))
(assert (= (select distances_2 2) 0))
(assert (= (select distances_2 3) 1))
(assert (= (select distances_2 4) 4))
(assert (= (select distances_2 5) 5))
(assert (= (select distances_2 6) 7))
(assert (= (select distances_2 7) 3))
(declare-fun distances_3 () (Array Int Int))
(assert (= (select distances_3 1) 4))
(assert (= (select distances_3 2) 1))
(assert (= (select distances_3 3) 0))
(assert (= (select distances_3 4) 5))
(assert (= (select distances_3 5) 6))
(assert (= (select distances_3 6) 6))
(assert (= (select distances_3 7) 4))
(declare-fun distances_4 () (Array Int Int))
(assert (= (select distances_4 1) 4))
(assert (= (select distances_4 2) 4))
(assert (= (select distances_4 3) 5))
(assert (= (select distances_4 4) 0))
(assert (= (select distances_4 5) 3))
(assert (= (select distances_4 6) 3))
(assert (= (select distances_4 7) 2))
(declare-fun distances_5 () (Array Int Int))
(assert (= (select distances_5 1) 6))
(assert (= (select distances_5 2) 7))
(assert (= (select distances_5 3) 8))
(assert (= (select distances_5 4) 3))
(assert (= (select distances_5 5) 0))
(assert (= (select distances_5 6) 2))
(assert (= (select distances_5 7) 4))
(declare-fun distances_6 () (Array Int Int))
(assert (= (select distances_6 1) 6))
(assert (= (select distances_6 2) 7))
(assert (= (select distances_6 3) 8))
(assert (= (select distances_6 4) 3))
(assert (= (select distances_6 5) 2))
(assert (= (select distances_6 6) 0))
(assert (= (select distances_6 7) 4))
(declare-fun distances_7 () (Array Int Int))
(assert (= (select distances_7 1) 2))
(assert (= (select distances_7 2) 3))
(assert (= (select distances_7 3) 4))
(assert (= (select distances_7 4) 3))
(assert (= (select distances_7 5) 4))
(assert (= (select distances_7 6) 4))
(assert (= (select distances_7 7) 0))
(declare-fun stops_1 () (Array Int Int))
(assert (>= (select stops_1 1) 1))
(assert (<= (select stops_1 1) 6))
(assert (>= (select stops_1 2) 1))
(assert (<= (select stops_1 2) 7))
(assert (>= (select stops_1 3) 1))
(assert (<= (select stops_1 3) 7))
(assert (>= (select stops_1 4) 1))
(assert (<= (select stops_1 4) 7))
(assert (>= (select stops_1 5) 1))
(assert (<= (select stops_1 5) 7))
(assert (>= (select stops_1 6) 1))
(assert (<= (select stops_1 6) 7))
(declare-fun stops_2 () (Array Int Int))
(assert (>= (select stops_2 1) 1))
(assert (<= (select stops_2 1) 6))
(assert (>= (select stops_2 2) 1))
(assert (<= (select stops_2 2) 7))
(assert (>= (select stops_2 3) 1))
(assert (<= (select stops_2 3) 7))
(assert (>= (select stops_2 4) 1))
(assert (<= (select stops_2 4) 7))
(assert (>= (select stops_2 5) 1))
(assert (<= (select stops_2 5) 7))
(assert (>= (select stops_2 6) 1))
(assert (<= (select stops_2 6) 7))
(declare-fun items_resp () (Array Int Int))
(assert (>= (select items_resp 1) 1))
(assert (<= (select items_resp 1) 2))
(assert (>= (select items_resp 2) 1))
(assert (<= (select items_resp 2) 2))
(assert (>= (select items_resp 3) 1))
(assert (<= (select items_resp 3) 2))
(assert (>= (select items_resp 4) 1))
(assert (<= (select items_resp 4) 2))
(assert (>= (select items_resp 5) 1))
(assert (<= (select items_resp 5) 2))
(assert (>= (select items_resp 6) 1))
(assert (<= (select items_resp 6) 2))
(declare-fun distances_traveled () (Array Int Int))
(assert (>= (select distances_traveled 1) 0))
(assert (<= (select distances_traveled 1) 40))
(assert (>= (select distances_traveled 2) 0))
(assert (<= (select distances_traveled 2) 40))

(declare-fun loads () (Array Int Int))
(assert (= (select loads 1) (+ (ite (= (select items_resp 1) 1) (select items_size 1) 0)(ite (= (select items_resp 2) 1) (select items_size 2) 0)(ite (= (select items_resp 3) 1) (select items_size 3) 0)(ite (= (select items_resp 4) 1) (select items_size 4) 0)(ite (= (select items_resp 5) 1) (select items_size 5) 0)(ite (= (select items_resp 6) 1) (select items_size 6) 0))))
(assert (>= (select couriers_capa 1) (select loads 1)))
(assert (= (select loads 2) (+ (ite (= (select items_resp 1) 2) (select items_size 1) 0)(ite (= (select items_resp 2) 2) (select items_size 2) 0)(ite (= (select items_resp 3) 2) (select items_size 3) 0)(ite (= (select items_resp 4) 2) (select items_size 4) 0)(ite (= (select items_resp 5) 2) (select items_size 5) 0)(ite (= (select items_resp 6) 2) (select items_size 6) 0))))
(assert (>= (select couriers_capa 2) (select loads 2)))

(assert (or (= (select items_resp 1) 1)(= (select items_resp 2) 1)(= (select items_resp 3) 1)(= (select items_resp 4) 1)(= (select items_resp 5) 1)(= (select items_resp 6) 1)))
(assert (or (= (select items_resp 1) 2)(= (select items_resp 2) 2)(= (select items_resp 3) 2)(= (select items_resp 4) 2)(= (select items_resp 5) 2)(= (select items_resp 6) 2)))

(assert (=> (> (select couriers_capa 1) (select couriers_capa 2)) (> (select loads 1) (select loads 2))))
(assert (=> (> (select couriers_capa 2) (select couriers_capa 1)) (> (select loads 2) (select loads 1))))


(assert (=> (<= 6 (+ (ite (= (select items_resp 1) 2) 1 0) (ite (= (select items_resp 2) 2) 1 0) (ite (= (select items_resp 3) 2) 1 0) (ite (= (select items_resp 4) 2) 1 0) (ite (= (select items_resp 5) 2) 1 0) (ite (= (select items_resp 6) 2) 1 0) )) (< (select stops_2 6) 7)))
(assert (=> (< (select stops_2 6) 7) (<= 6 (+ (ite (= (select items_resp 1) 2) 1 0) (ite (= (select items_resp 2) 2) 1 0) (ite (= (select items_resp 3) 2) 1 0) (ite (= (select items_resp 4) 2) 1 0) (ite (= (select items_resp 5) 2) 1 0) (ite (= (select items_resp 6) 2) 1 0) ))))

(assert (=> (= (select items_resp 1) 1) (or (= (select stops_1 1) 1)(= (select stops_1 2) 1)(= (select stops_1 3) 1)(= (select stops_1 4) 1)(= (select stops_1 5) 1)(= (select stops_1 6) 1))))
(assert (=> (= (select items_resp 2) 1) (or (= (select stops_1 1) 2)(= (select stops_1 2) 2)(= (select stops_1 3) 2)(= (select stops_1 4) 2)(= (select stops_1 5) 2)(= (select stops_1 6) 2))))
(assert (=> (= (select items_resp 3) 1) (or (= (select stops_1 1) 3)(= (select stops_1 2) 3)(= (select stops_1 3) 3)(= (select stops_1 4) 3)(= (select stops_1 5) 3)(= (select stops_1 6) 3))))
(assert (=> (= (select items_resp 4) 1) (or (= (select stops_1 1) 4)(= (select stops_1 2) 4)(= (select stops_1 3) 4)(= (select stops_1 4) 4)(= (select stops_1 5) 4)(= (select stops_1 6) 4))))
(assert (=> (= (select items_resp 5) 1) (or (= (select stops_1 1) 5)(= (select stops_1 2) 5)(= (select stops_1 3) 5)(= (select stops_1 4) 5)(= (select stops_1 5) 5)(= (select stops_1 6) 5))))
(assert (=> (= (select items_resp 6) 1) (or (= (select stops_1 1) 6)(= (select stops_1 2) 6)(= (select stops_1 3) 6)(= (select stops_1 4) 6)(= (select stops_1 5) 6)(= (select stops_1 6) 6))))
(assert (=> (= (select items_resp 1) 2) (or (= (select stops_2 1) 1)(= (select stops_2 2) 1)(= (select stops_2 3) 1)(= (select stops_2 4) 1)(= (select stops_2 5) 1)(= (select stops_2 6) 1))))
(assert (=> (= (select items_resp 2) 2) (or (= (select stops_2 1) 2)(= (select stops_2 2) 2)(= (select stops_2 3) 2)(= (select stops_2 4) 2)(= (select stops_2 5) 2)(= (select stops_2 6) 2))))
(assert (=> (= (select items_resp 3) 2) (or (= (select stops_2 1) 3)(= (select stops_2 2) 3)(= (select stops_2 3) 3)(= (select stops_2 4) 3)(= (select stops_2 5) 3)(= (select stops_2 6) 3))))
(assert (=> (= (select items_resp 4) 2) (or (= (select stops_2 1) 4)(= (select stops_2 2) 4)(= (select stops_2 3) 4)(= (select stops_2 4) 4)(= (select stops_2 5) 4)(= (select stops_2 6) 4))))
(assert (=> (= (select items_resp 5) 2) (or (= (select stops_2 1) 5)(= (select stops_2 2) 5)(= (select stops_2 3) 5)(= (select stops_2 4) 5)(= (select stops_2 5) 5)(= (select stops_2 6) 5))))
(assert (=> (= (select items_resp 6) 2) (or (= (select stops_2 1) 6)(= (select stops_2 2) 6)(= (select stops_2 3) 6)(= (select stops_2 4) 6)(= (select stops_2 5) 6)(= (select stops_2 6) 6))))

(declare-const successors (Array Int Int))
(assert (=> (not (= (select stops_1 1) 7)) (= (select successors (select stops_1 1)) (select stops_1 2))))
(assert (=> (not (= (select stops_1 2) 7)) (= (select successors (select stops_1 2)) (select stops_1 3))))
(assert (=> (not (= (select stops_1 3) 7)) (= (select successors (select stops_1 3)) (select stops_1 4))))
(assert (=> (not (= (select stops_1 4) 7)) (= (select successors (select stops_1 4)) (select stops_1 5))))
(assert (=> (not (= (select stops_1 5) 7)) (= (select successors (select stops_1 5)) (select stops_1 6))))
(assert (=> (not (= (select stops_2 1) 7)) (= (select successors (select stops_2 1)) (select stops_2 2))))
(assert (=> (not (= (select stops_2 2) 7)) (= (select successors (select stops_2 2)) (select stops_2 3))))
(assert (=> (not (= (select stops_2 3) 7)) (= (select successors (select stops_2 3)) (select stops_2 4))))
(assert (=> (not (= (select stops_2 4) 7)) (= (select successors (select stops_2 4)) (select stops_2 5))))
(assert (=> (not (= (select stops_2 5) 7)) (= (select successors (select stops_2 5)) (select stops_2 6))))

(assert (= (select distances_traveled 1) (+ (ite (and (= (select items_resp 1) 1) (= (select successors 1) 1) ) (select distances_1 1) 0)(ite (and (= (select items_resp 1) 1) (= (select successors 1) 2) ) (select distances_1 2) 0)(ite (and (= (select items_resp 1) 1) (= (select successors 1) 3) ) (select distances_1 3) 0)(ite (and (= (select items_resp 1) 1) (= (select successors 1) 4) ) (select distances_1 4) 0)(ite (and (= (select items_resp 1) 1) (= (select successors 1) 5) ) (select distances_1 5) 0)(ite (and (= (select items_resp 1) 1) (= (select successors 1) 6) ) (select distances_1 6) 0)(ite (and (= (select items_resp 1) 1) (= (select successors 1) 7) ) (select distances_1 7) 0)(ite (and (= (select items_resp 2) 1) (= (select successors 2) 1) ) (select distances_2 1) 0)(ite (and (= (select items_resp 2) 1) (= (select successors 2) 2) ) (select distances_2 2) 0)(ite (and (= (select items_resp 2) 1) (= (select successors 2) 3) ) (select distances_2 3) 0)(ite (and (= (select items_resp 2) 1) (= (select successors 2) 4) ) (select distances_2 4) 0)(ite (and (= (select items_resp 2) 1) (= (select successors 2) 5) ) (select distances_2 5) 0)(ite (and (= (select items_resp 2) 1) (= (select successors 2) 6) ) (select distances_2 6) 0)(ite (and (= (select items_resp 2) 1) (= (select successors 2) 7) ) (select distances_2 7) 0)(ite (and (= (select items_resp 3) 1) (= (select successors 3) 1) ) (select distances_3 1) 0)(ite (and (= (select items_resp 3) 1) (= (select successors 3) 2) ) (select distances_3 2) 0)(ite (and (= (select items_resp 3) 1) (= (select successors 3) 3) ) (select distances_3 3) 0)(ite (and (= (select items_resp 3) 1) (= (select successors 3) 4) ) (select distances_3 4) 0)(ite (and (= (select items_resp 3) 1) (= (select successors 3) 5) ) (select distances_3 5) 0)(ite (and (= (select items_resp 3) 1) (= (select successors 3) 6) ) (select distances_3 6) 0)(ite (and (= (select items_resp 3) 1) (= (select successors 3) 7) ) (select distances_3 7) 0)(ite (and (= (select items_resp 4) 1) (= (select successors 4) 1) ) (select distances_4 1) 0)(ite (and (= (select items_resp 4) 1) (= (select successors 4) 2) ) (select distances_4 2) 0)(ite (and (= (select items_resp 4) 1) (= (select successors 4) 3) ) (select distances_4 3) 0)(ite (and (= (select items_resp 4) 1) (= (select successors 4) 4) ) (select distances_4 4) 0)(ite (and (= (select items_resp 4) 1) (= (select successors 4) 5) ) (select distances_4 5) 0)(ite (and (= (select items_resp 4) 1) (= (select successors 4) 6) ) (select distances_4 6) 0)(ite (and (= (select items_resp 4) 1) (= (select successors 4) 7) ) (select distances_4 7) 0)(ite (and (= (select items_resp 5) 1) (= (select successors 5) 1) ) (select distances_5 1) 0)(ite (and (= (select items_resp 5) 1) (= (select successors 5) 2) ) (select distances_5 2) 0)(ite (and (= (select items_resp 5) 1) (= (select successors 5) 3) ) (select distances_5 3) 0)(ite (and (= (select items_resp 5) 1) (= (select successors 5) 4) ) (select distances_5 4) 0)(ite (and (= (select items_resp 5) 1) (= (select successors 5) 5) ) (select distances_5 5) 0)(ite (and (= (select items_resp 5) 1) (= (select successors 5) 6) ) (select distances_5 6) 0)(ite (and (= (select items_resp 5) 1) (= (select successors 5) 7) ) (select distances_5 7) 0)(ite (and (= (select items_resp 6) 1) (= (select successors 6) 1) ) (select distances_6 1) 0)(ite (and (= (select items_resp 6) 1) (= (select successors 6) 2) ) (select distances_6 2) 0)(ite (and (= (select items_resp 6) 1) (= (select successors 6) 3) ) (select distances_6 3) 0)(ite (and (= (select items_resp 6) 1) (= (select successors 6) 4) ) (select distances_6 4) 0)(ite (and (= (select items_resp 6) 1) (= (select successors 6) 5) ) (select distances_6 5) 0)(ite (and (= (select items_resp 6) 1) (= (select successors 6) 6) ) (select distances_6 6) 0)(ite (and (= (select items_resp 6) 1) (= (select successors 6) 7) ) (select distances_6 7) 0)(select distances_7 (select stops_1 1)))))
(assert (= (select distances_traveled 2) (+ (ite (and (= (select items_resp 1) 2) (= (select successors 1) 1) ) (select distances_1 1) 0)(ite (and (= (select items_resp 1) 2) (= (select successors 1) 2) ) (select distances_1 2) 0)(ite (and (= (select items_resp 1) 2) (= (select successors 1) 3) ) (select distances_1 3) 0)(ite (and (= (select items_resp 1) 2) (= (select successors 1) 4) ) (select distances_1 4) 0)(ite (and (= (select items_resp 1) 2) (= (select successors 1) 5) ) (select distances_1 5) 0)(ite (and (= (select items_resp 1) 2) (= (select successors 1) 6) ) (select distances_1 6) 0)(ite (and (= (select items_resp 1) 2) (= (select successors 1) 7) ) (select distances_1 7) 0)(ite (and (= (select items_resp 2) 2) (= (select successors 2) 1) ) (select distances_2 1) 0)(ite (and (= (select items_resp 2) 2) (= (select successors 2) 2) ) (select distances_2 2) 0)(ite (and (= (select items_resp 2) 2) (= (select successors 2) 3) ) (select distances_2 3) 0)(ite (and (= (select items_resp 2) 2) (= (select successors 2) 4) ) (select distances_2 4) 0)(ite (and (= (select items_resp 2) 2) (= (select successors 2) 5) ) (select distances_2 5) 0)(ite (and (= (select items_resp 2) 2) (= (select successors 2) 6) ) (select distances_2 6) 0)(ite (and (= (select items_resp 2) 2) (= (select successors 2) 7) ) (select distances_2 7) 0)(ite (and (= (select items_resp 3) 2) (= (select successors 3) 1) ) (select distances_3 1) 0)(ite (and (= (select items_resp 3) 2) (= (select successors 3) 2) ) (select distances_3 2) 0)(ite (and (= (select items_resp 3) 2) (= (select successors 3) 3) ) (select distances_3 3) 0)(ite (and (= (select items_resp 3) 2) (= (select successors 3) 4) ) (select distances_3 4) 0)(ite (and (= (select items_resp 3) 2) (= (select successors 3) 5) ) (select distances_3 5) 0)(ite (and (= (select items_resp 3) 2) (= (select successors 3) 6) ) (select distances_3 6) 0)(ite (and (= (select items_resp 3) 2) (= (select successors 3) 7) ) (select distances_3 7) 0)(ite (and (= (select items_resp 4) 2) (= (select successors 4) 1) ) (select distances_4 1) 0)(ite (and (= (select items_resp 4) 2) (= (select successors 4) 2) ) (select distances_4 2) 0)(ite (and (= (select items_resp 4) 2) (= (select successors 4) 3) ) (select distances_4 3) 0)(ite (and (= (select items_resp 4) 2) (= (select successors 4) 4) ) (select distances_4 4) 0)(ite (and (= (select items_resp 4) 2) (= (select successors 4) 5) ) (select distances_4 5) 0)(ite (and (= (select items_resp 4) 2) (= (select successors 4) 6) ) (select distances_4 6) 0)(ite (and (= (select items_resp 4) 2) (= (select successors 4) 7) ) (select distances_4 7) 0)(ite (and (= (select items_resp 5) 2) (= (select successors 5) 1) ) (select distances_5 1) 0)(ite (and (= (select items_resp 5) 2) (= (select successors 5) 2) ) (select distances_5 2) 0)(ite (and (= (select items_resp 5) 2) (= (select successors 5) 3) ) (select distances_5 3) 0)(ite (and (= (select items_resp 5) 2) (= (select successors 5) 4) ) (select distances_5 4) 0)(ite (and (= (select items_resp 5) 2) (= (select successors 5) 5) ) (select distances_5 5) 0)(ite (and (= (select items_resp 5) 2) (= (select successors 5) 6) ) (select distances_5 6) 0)(ite (and (= (select items_resp 5) 2) (= (select successors 5) 7) ) (select distances_5 7) 0)(ite (and (= (select items_resp 6) 2) (= (select successors 6) 1) ) (select distances_6 1) 0)(ite (and (= (select items_resp 6) 2) (= (select successors 6) 2) ) (select distances_6 2) 0)(ite (and (= (select items_resp 6) 2) (= (select successors 6) 3) ) (select distances_6 3) 0)(ite (and (= (select items_resp 6) 2) (= (select successors 6) 4) ) (select distances_6 4) 0)(ite (and (= (select items_resp 6) 2) (= (select successors 6) 5) ) (select distances_6 5) 0)(ite (and (= (select items_resp 6) 2) (= (select successors 6) 6) ) (select distances_6 6) 0)(ite (and (= (select items_resp 6) 2) (= (select successors 6) 7) ) (select distances_6 7) 0)(select distances_7 (select stops_2 1)))))

(assert (> (select distances_traveled 1) 0))
(assert (<= (select distances_traveled 1) 11))
(assert (> (select distances_traveled 2) 0))
(assert (<= (select distances_traveled 2) 11))
(check-sat)
(get-model)
